(set-info :smt-lib-version 2.6)
(set-logic QF_SLIA)
(set-info :source |
Generated by: Dmitry Blotsky1, Federico Mora, Murphy Berzish, Yunhui Zheng, Ifaz Kabir, Vijay Ganesh, Zhengyang Lu
Generated on: 2018-01-24
Generator: StringFuzz
Application: Evaluate string solvers
Target solver: Z3str3, CVC4, Z3str2, Norn
Publications: Blotsky, D., Mora, F., Berzish, M., Zheng, Y., Kabir, I., & Ganesh, V. (2018). Stringfuzz: A fuzzer for string solvers. In CAV 2018.
Description: new instance generated by StringFuzz, a modular string and regex fuzzer
|)
(set-info :license "https://creativecommons.org/licenses/by/4.0/")
(set-info :category "random")
(set-info :status unknown)

(declare-fun var0 () String)
(assert (str.in_re var0 (re.++ (re.+ (re.+ (str.to_re "000"))) (re.++ (re.* (re.union (str.to_re "11") (str.to_re "22"))) (re.++ (re.+ (re.* (str.to_re "33"))) (re.++ (re.* (re.* (str.to_re "4"))) (re.++ (re.* (re.+ (str.to_re "55"))) (re.++ (re.* (re.union (str.to_re "6") (str.to_re "7"))) (re.++ (re.+ (re.+ (str.to_re "88"))) (re.++ (re.* (re.union (str.to_re "9") (str.to_re "aa"))) (re.++ (re.* (re.union (str.to_re "b") (str.to_re "ccc"))) (re.++ (re.* (re.+ (str.to_re "d"))) (re.++ (re.+ (re.union (str.to_re "eee") (str.to_re "ff"))) (re.++ (re.+ (re.union (str.to_re "g") (str.to_re "h"))) (re.++ (re.+ (re.+ (str.to_re "i"))) (re.++ (re.+ (re.* (str.to_re "jjj"))) (re.++ (re.* (re.+ (str.to_re "kkk"))) (re.++ (re.* (re.union (str.to_re "lll") (str.to_re "mm"))) (re.++ (re.+ (re.* (str.to_re "n"))) (re.++ (re.+ (re.+ (str.to_re "o"))) (re.++ (re.+ (re.* (str.to_re "ppp"))) (re.++ (re.* (re.union (str.to_re "qq") (str.to_re "rrr"))) (re.++ (re.* (re.* (str.to_re "ss"))) (re.++ (re.union (re.* (str.to_re "ttt")) (re.+ (str.to_re "uu"))) (re.++ (re.+ (re.+ (str.to_re "vvv"))) (re.++ (re.union (re.* (str.to_re "w")) (re.union (str.to_re "xx") (str.to_re "yyy"))) (re.++ (re.+ (re.* (str.to_re "zzz"))) (re.++ (re.* (re.+ (str.to_re "AA"))) (re.++ (re.* (re.* (str.to_re "BBB"))) (re.++ (re.+ (re.* (str.to_re "CC"))) (re.* (re.+ (str.to_re "DDD")))))))))))))))))))))))))))))))))
(check-sat)
(exit)
